units metal
boundary p p p
atom_style atomic
read_data JHW_t1_model.dat
pair_style eam/alloy
pair_coeff * * ZrCuAl2011.eam.alloy Cu Al Zr

suffix on
compute 1 all voronoi/atom

dump 1 all atom 1 lammps.dump

minimize 1.0e-4 1.0e-6 100 1000
